\* Improving_ex_post_stable_matchings *\
Minimize
OBJ: 0 __dummy
Subject To
_dummy: __dummy = 0
FOSD_0_0: __dummy >= 0.666666666667
FOSD_0_1: __dummy >= 1
FOSD_0_2: __dummy >= 1
FOSD_1_0: __dummy >= 0
FOSD_1_1: __dummy >= 1
FOSD_1_2: __dummy >= 1
FOSD_2_0: __dummy >= 0.666666666667
FOSD_2_1: __dummy >= 1
FOSD_2_2: __dummy >= 1
FOSD_3_0: __dummy >= 0.666666666667
FOSD_3_1: __dummy >= 1
FOSD_3_2: __dummy >= 1
Sum_to_one: __dummy = 1
Bounds
 __dummy = 0
End
